/* Objective function */
max: +15 N11 +19 N12 +28 N13 +17 N14 +8 N21 +12 N22 +16 N23 +11 N24
 +22 N31 +18 N32 +26 N33 +12 N34 +2 N41 +13 N42 +16 N43 +10 N44
 +17 N51 +14 N52 +20 N53 +19 N54 +28 N61 +14 N62 +19 N63 +22 N64
 +14 N71 +4 N72 +12 N73 +15 N74 +28 N81 +12 N82 +11 N83 +2 N84
 +25 N91 +29 N92 +13 N93 +20 N94 +12 N101 +4 N102 +6 N103 +26 N104
 +22 N111 +18 N112 +26 N113 +7 N114 +24 N121 +4 N122 +9 N123
 +N124;


/* Constraints */
Group1: +N11 +N21 +N31 +N41 +N51 +N61 +N71 +N81 +N91 +N101 +N111 +N121 = 3;
Group2: +N12 +N22 +N32 +N42 +N52 +N62 +N72 +N82 +N92 +N102 +N112 +N122 = 3;
Group3: +N13 +N23 +N33 +N43 +N53 +N63 +N73 +N83 +N93 +N103 +N113 +N123 = 3;
Group4: +N14 +N24 +N34 +N44 +N54 +N64 +N74 +N84 +N94 +N104 +N114 +N124 = 3;
 

Student1: +N11 +N12 +N13 +N14 = 1;
Student2: +N21 +N22 +N23 +N24 = 1;
Student3: +N31 +N32 +N33 +N34 = 1;
Student4: +N41 +N42 +N43 +N44 = 1;
Student5: +N51 +N52 +N53 +N54 = 1;
Student6: +N61 +N62 +N63 +N64 = 1;
Student7: +N71 +N72 +N73 +N74 = 1;
Student8: +N81 +N82 +N83 +N84 = 1;
Student9: +N91 +N92 +N93 +N94 = 1;
Student10: +N101 +N102 +N103 +N104 = 1;
Student11: +N111 +N112 +N113 +N114 = 1;
Student12: +N121 +N122 +N123 +N124 = 1;


GPA: +3.4 N11 +3.7 N21 +3.5 N31 +3.1 N41 +3.1 N51 +2.3 N61 +3 N71
 +3.2 N81 +3.4 N91 +3.5 N101 +2.7 N111 +2.4 N121 >= 8.4;
GPA: +3.4 N12 +3.7 N22 +3.5 N32 +3.1 N42 +3.1 N52 +2.3 N62 +3 N72
 +3.2 N82 +3.4 N92 +3.5 N102 +2.7 N112 +2.4 N122 >= 8.4;
GPA: +3.4 N13 +3.7 N23 +3.5 N33 +3.1 N43 +3.1 N53 +2.3 N63 +3 N73
 +3.2 N83 +3.4 N93 +3.5 N103 +2.7 N113 +2.4 N123 >= 8.4;
GPA: +3.4 N14 +3.7 N24 +3.5 N34 +3.1 N44 +3.1 N54 +2.3 N64 +3 N74
 +3.2 N84 +3.4 N94 +3.5 N104 +2.7 N114 +2.4 N124 >= 8.4;
 
activity: 10N11 + 5N12 + 10N13 + 5N14 + 10N15 + 6N16 + 7N17 + 7N18 + 6N19 + 5N110 + 9N111 + 10N112 >= 21;
activity: 10N21 + 5N22 + 10N23 + 5N24 + 10N25 + 6N26 + 7N27 + 7N28 + 6N29 + 5N210 + 9N211 + 10N212 >= 21;
activity: 10N31 + 5N32 + 10N33 + 5N34 + 10N35 + 6N36 + 7N37 + 7N38 + 6N39 + 5N310 + 9N311 +  10N312 >= 21;
activity: 10N41 + 5N42 + 10N43 + 5N44 + 10N45 + 6N46 + 7N47 + 7N48 + 6N49 + 5N410 + 9N411 + 10N412 >= 21;

Participation: +52.1 N11 +63.6 N21 +53 N31 +85 N41 +78.8 N51 +90.5 N61 +71.3 N71+65.7 N81 +84.1 N91 +50.2 N101 +96.6 N111 +73.8 N121 >= 200;
Participation: +52.1 N12 +63.6 N22 +53 N32 +85 N42 +78.8 N52 +90.5 N62 +71.3 N72+65.7 N82 +84.1 N92 +50.2 N102 +96.6 N112 +73.8 N122 >= 200;
Participation: +52.1 N13 +63.6 N23 +53 N33 +85 N43 +78.8 N53 +90.5 N63 +71.3 N73+65.7 N83 +84.1 N93 +50.2 N103 +96.6 N113 +73.8 N123 >= 200;
Participation: +52.1 N14 +63.6 N24 +53 N34 +85 N44 +78.8 N54 +90.5 N64 +71.3 N74+65.7 N84 +84.1 N94 +50.2 N104 +96.6 N114 +73.8 N124 >= 200;

Group1PeerRev: +91.9 N11 +83.7 N21 +65.9 N31 +64.7 N41 +73.8 N51 +90.2 N61 +98.7 N71+99.8 N81 +96.7 N91 +81 N101 +68.8 N111 +80.4 N121 >= 200;
Group2PeerRev: +91.9 N12 +83.7 N22 +65.9 N32 +64.7 N42 +73.8 N52 +90.2 N62 +98.7 N72+99.8 N82 +96.7 N92 +81 N102 +68.8 N112 +80.4 N122 >= 200;
Group3PeeRev: +91.9 N13 +83.7 N23 +65.9 N33 +64.7 N43 +73.8 N53 +90.2 N63 +98.7 N73
 +99.8 N83 +96.7 N93 +81 N103 +68.8 N113 +80.4 N123 >= 200;
Group4PeerRev: +91.9 N14 +83.7 N24 +65.9 N34 +64.7 N44 +73.8 N54 +90.2 N64 +98.7 N74+99.8 N84 +96.7 N94 +81 N104 +68.8 N114 +80.4 N124 >= 200;

 
bin N11, N21, N31, N41, N51, N61, N71, N81, N91, N101, 
N111, N121, N12, N22, N32, N42, N52, N62, N72, N82, 
N92, N102, N112, N122, N13, N23, N33, N43, N53, N63, 
N73, N83, N93, N103, N113, N123, N14, N24, N34, N44, 
N54, N64, N74, N84, N94, N104, N114, N124;